246 5
10 10 10 10 10 

0 0 0 0 0 0 4 2 14 26 38 
0 0 0 0 0 0 2 3 5 
1 0 1 0 0 0 1 4 
4 0 2 0 0 0 2 8 6 
9 0 2 0 0 0 2 8 6 
3 0 2 0 0 0 2 7 28 
10 0 3 0 0 0 2 11 9 
2 0 2 0 0 0 2 11 9 
8 0 3 0 0 0 1 10 
3 0 4 0 0 0 1 12 
3 0 4 0 0 0 1 12 
10 0 2 0 0 0 1 13 
0 0 0 0 0 0 1 50 
0 0 0 0 0 0 2 15 17 
4 0 1 0 0 0 1 16 
5 0 2 0 0 0 3 21 18 235 
8 0 1 0 0 0 3 24 21 19 
6 0 1 0 0 0 2 24 19 
4 0 4 0 0 0 1 20 
9 0 4 0 0 0 1 22 
10 0 6 0 0 0 1 22 
7 0 2 0 0 0 1 23 
9 0 2 0 0 0 1 25 
9 0 2 0 0 0 1 25 
0 0 0 0 0 0 1 50 
0 0 0 0 0 0 2 27 29 
9 0 1 0 0 0 2 28 141 
2 0 2 0 0 0 2 36 30 
10 0 2 0 0 0 2 36 30 
9 0 2 0 0 0 1 31 
10 0 2 0 0 0 1 32 
7 0 4 0 0 0 2 35 33 
10 0 2 0 0 0 1 34 
8 0 2 0 0 0 1 37 
9 0 4 0 0 0 1 37 
1 0 4 0 0 0 1 37 
0 0 0 0 0 0 1 50 
0 0 0 0 0 0 2 39 41 
2 0 1 0 0 0 1 40 
5 0 2 0 0 0 1 42 
8 0 2 0 0 0 1 42 
5 0 2 0 0 0 3 46 43 167 
9 0 3 0 0 0 1 44 
4 0 5 0 0 0 2 47 45 
3 0 2 0 0 0 1 48 
7 0 4 0 0 0 1 47 
1 0 3 0 0 0 1 49 
6 0 1 0 0 0 1 49 
0 0 0 0 0 0 1 50 
0 0 0 0 0 0 4 51 63 75 87 
0 0 0 0 0 0 3 52 53 61 
2 0 0 0 1 0 2 58 54 
10 0 0 0 2 0 1 54 
7 0 0 0 4 0 1 55 
3 0 0 0 1 0 1 56 
2 0 0 0 1 0 1 57 
7 0 0 0 3 0 1 59 
3 0 0 0 3 0 1 59 
3 0 0 0 2 0 1 60 
7 0 0 0 4 0 1 62 
8 0 0 0 4 0 1 62 
0 0 0 0 0 0 1 99 
0 0 0 0 0 0 1 64 
10 0 1 0 0 0 2 67 65 
6 0 2 0 0 0 1 66 
8 0 4 0 0 0 2 71 68 
1 0 4 0 0 0 2 71 69 
9 0 1 0 0 0 1 69 
7 0 1 0 0 0 2 73 70 
2 0 1 0 0 0 1 72 
5 0 2 0 0 0 1 72 
3 0 4 0 0 0 1 74 
8 0 5 0 0 0 1 74 
0 0 0 0 0 0 1 99 
0 0 0 0 0 0 2 76 78 
2 1 0 0 0 0 2 80 77 
1 4 0 0 0 0 2 85 79 
8 1 0 0 0 0 2 85 79 
10 3 0 0 0 0 1 81 
1 2 0 0 0 0 1 81 
9 1 0 0 0 0 1 82 
6 2 0 0 0 0 1 83 
10 4 0 0 0 0 1 84 
4 5 0 0 0 0 1 86 
6 2 0 0 0 0 1 86 
0 0 0 0 0 0 1 99 
0 0 0 0 0 0 2 88 92 
7 0 0 0 0 1 1 89 
5 0 0 0 0 3 1 90 
2 0 0 0 0 3 1 91 
6 0 0 0 0 2 2 97 93 
4 0 0 0 0 1 2 97 94 
10 0 0 0 0 3 1 95 
3 0 0 0 0 5 1 95 
5 0 0 0 0 4 1 96 
10 0 0 0 0 2 1 98 
1 0 0 0 0 1 1 98 
0 0 0 0 0 0 1 99 
0 0 0 0 0 0 4 100 112 124 136 
0 0 0 0 0 0 1 101 
8 1 0 0 0 0 3 110 109 102 
9 1 0 0 0 0 2 108 103 
8 2 0 0 0 0 1 104 
4 5 0 0 0 0 1 105 
10 2 0 0 0 0 1 106 
9 4 0 0 0 0 1 107 
9 4 0 0 0 0 1 111 
2 1 0 0 0 0 1 111 
6 3 0 0 0 0 1 111 
5 2 0 0 0 0 1 111 
0 0 0 0 0 0 1 148 
0 0 0 0 0 0 1 113 
8 1 0 0 0 0 2 117 114 
9 2 0 0 0 0 1 115 
3 2 0 0 0 0 2 121 116 
9 3 0 0 0 0 1 118 
3 2 0 0 0 0 1 118 
10 1 0 0 0 0 2 120 119 
5 1 0 0 0 0 1 122 
7 3 0 0 0 0 1 122 
5 8 0 0 0 0 1 122 
8 2 0 0 0 0 1 123 
0 0 0 0 0 0 1 148 
0 0 0 0 0 0 2 125 127 
8 0 0 1 0 0 2 131 126 
1 0 0 3 0 0 1 128 
5 0 0 1 0 0 2 131 130 
8 0 0 2 0 0 1 129 
8 0 0 2 0 0 1 130 
5 0 0 1 0 0 2 134 132 
5 0 0 7 0 0 2 134 133 
1 0 0 2 0 0 1 133 
9 0 0 4 0 0 1 135 
10 0 0 2 0 0 1 135 
0 0 0 0 0 0 1 148 
0 0 0 0 0 0 2 137 146 
3 1 0 0 0 0 1 138 
8 4 0 0 0 0 1 139 
1 1 0 0 0 0 2 143 140 
10 4 0 0 0 0 1 141 
2 2 0 0 0 0 1 142 
2 3 0 0 0 0 1 144 
10 5 0 0 0 0 1 145 
6 3 0 0 0 0 1 147 
5 1 0 0 0 0 1 147 
2 1 0 0 0 0 1 147 
0 0 0 0 0 0 1 148 
0 0 0 0 0 0 4 149 161 173 185 
0 0 0 0 0 0 3 150 155 156 
1 0 1 0 0 0 1 151 
5 0 3 0 0 0 1 152 
8 0 3 0 0 0 1 153 
8 0 5 0 0 0 1 154 
2 0 3 0 0 0 2 159 157 
2 0 2 0 0 0 2 159 157 
7 0 1 0 0 0 1 157 
7 0 2 0 0 0 1 158 
2 0 2 0 0 0 1 160 
6 0 3 0 0 0 1 160 
0 0 0 0 0 0 1 197 
0 0 0 0 0 0 2 162 170 
2 0 0 0 0 1 2 167 163 
4 0 0 0 0 4 1 164 
7 0 0 0 0 1 2 169 165 
7 0 0 0 0 2 1 166 
6 0 0 0 0 2 1 168 
1 0 0 0 0 3 1 168 
1 0 0 0 0 4 1 171 
9 0 0 0 0 3 1 171 
1 0 0 0 0 1 1 171 
8 0 0 0 0 4 1 172 
0 0 0 0 0 0 1 197 
0 0 0 0 0 0 2 174 176 
2 1 0 0 0 0 3 180 178 175 
9 3 0 0 0 0 1 177 
5 5 0 0 0 0 1 177 
4 2 0 0 0 0 1 179 
4 2 0 0 0 0 1 179 
4 2 0 0 0 0 1 181 
2 1 0 0 0 0 1 181 
4 3 0 0 0 0 1 182 
7 3 0 0 0 0 1 183 
3 3 0 0 0 0 1 184 
0 0 0 0 0 0 1 197 
0 0 0 0 0 0 1 186 
1 0 0 1 0 0 2 195 187 
4 0 0 3 0 0 2 192 188 
8 0 0 3 0 0 1 189 
1 0 0 4 0 0 2 194 190 
3 0 0 3 0 0 1 191 
7 0 0 3 0 0 1 193 
6 0 0 1 0 0 1 193 
5 0 0 1 0 0 1 196 
10 0 0 1 0 0 1 196 
3 0 0 5 0 0 1 196 
0 0 0 0 0 0 1 197 
0 0 0 0 0 0 4 198 210 222 234 
0 0 0 0 0 0 3 199 202 204 
8 1 0 0 0 0 1 200 
8 3 0 0 0 0 2 208 201 
5 3 0 0 0 0 1 203 
6 4 0 0 0 0 1 203 
5 4 0 0 0 0 1 205 
6 2 0 0 0 0 1 205 
2 3 0 0 0 0 1 206 
3 1 0 0 0 0 1 207 
7 2 0 0 0 0 1 209 
5 2 0 0 0 0 1 209 
0 0 0 0 0 0 1 246 
0 0 0 0 0 0 2 211 214 
1 0 0 1 0 0 1 212 
6 0 0 4 0 0 1 213 
9 0 0 1 0 0 2 220 215 
7 0 0 1 0 0 2 217 216 
1 0 0 2 0 0 1 216 
1 0 0 3 0 0 1 218 
7 0 0 2 0 0 1 218 
5 0 0 2 0 0 1 219 
3 0 0 4 0 0 1 221 
8 0 0 5 0 0 1 221 
0 0 0 0 0 0 1 246 
0 0 0 0 0 0 2 223 228 
8 0 1 0 0 0 1 224 
4 0 3 0 0 0 1 225 
9 0 2 0 0 0 2 230 226 
9 0 3 0 0 0 2 232 227 
8 0 3 0 0 0 1 229 
8 0 2 0 0 0 1 229 
9 0 5 0 0 0 1 231 
10 0 2 0 0 0 1 231 
5 0 2 0 0 0 1 233 
5 0 2 0 0 0 1 233 
0 0 0 0 0 0 1 246 
0 0 0 0 0 0 3 235 237 244 
10 0 0 1 0 0 1 236 
2 0 0 1 0 0 2 243 238 
3 0 0 4 0 0 2 243 238 
3 0 0 1 0 0 1 239 
2 0 0 2 0 0 1 240 
8 0 0 3 0 0 1 241 
5 0 0 4 0 0 1 242 
9 0 0 3 0 0 1 245 
4 0 0 1 0 0 1 245 
1 0 0 5 0 0 1 245 
0 0 0 0 0 0 1 246 
0 0 0 0 0 0 0 
